##TITLE=Prediction 1
##JCAMP-DX=6.00
##DATA TYPE= NMR SPECTRUM
##DATA CLASS= XYDATA
##ORIGIN=
##OWNER=
##.SHIFT REFERENCE=INTERNAL, , 1, 12
##.OBSERVE FREQUENCY=400
##.OBSERVE NUCLEUS=1H
##.SOLVENT=
##$OFFSET=-1
##$SW=13
##$BF1=400
##XUNITS=HZ
##YUNITS=ARBITRARY UNITS
##XFACTOR=0.039673154244646035
##YFACTOR=0.04656612875245797
##DELTAX=0.03967315424466733
##FIRSTX=0
##FIRSTY=0
##LASTX=5200
##MAXY=100000000
##MINY=0
##NPOINTS=131072
##XYDATA=(X++(Y..Y))
131071@%S9145O760L581N341J8608J7310K5389L6906N9829P9445J12682J58405K20698L04746M17040N65596P60173
111910B792509J012472J336302J747681K264845K908142L699750M663230N822824P202530Q824904J0709617J2871765
111898F5856571J5320001J8054563K1065266K4329622K7811211L1458454L5203974L8964667M2642642M6127095
111888C66834066M9297181N2025836N4184490N5648467N6302866N6048590N4808219N2531313M9198810M4826171
111878H91706009L9464986L3202854K6161446J8492781J0373841J999810o423707j4689074k2595121k9955269
111868I47738556l6604842m2407135m7257963n1088467n3866087n5593772n6307529n6072586n4978474n3133376
111858D40428325n0658122m7680195m4328066m0726120l6990398l3225263k9521041k5952662k2579175j9444077
111848H9323206j6576279j3991566j1694382r679790p935481o443707n183058m130032l260350k550011j976098
111837E902452j517340j154470q70410o50312m81490l53294k56906j85148j32242r3615o5682m9050l0264k0717k2631
111822A8881o381m297k866n337%Z2L1067J6358K4343O1426O6042R6241J38986J98904K82081L96416N52031P61733
111724B625628J041491J410942J893872K518629L318437M331527N601013P174455R102989J1439994J4239189
111713F4698166J7552148K1425204K5895811L0988399L6709929M3045311M9953002N7361056O5164051P3221218
111703D86014295Q1356162Q9358512R6987695J03979016J10051976J14920678J18305945J19948614J19623342
111694A440546235J17152096J12416484J05368045R6035705Q4529713P1041599N5839918L9261820K1700800L591232
111684B147483647j4609479l2440083m9454910o5242360p9441436r1755334j01961445j09917269j15562108
111675A487099223j18914653j20066839j19174592j16446190j12129125j06496328r9832577r2421847q4536177
111666E17080895p6426492o8315638o0393701n2815551m5700388l9133034l3166570k7826000k3112499j9007972
111656G1183050j5479578j2484015r971369p888434o181439m798173l689538k810597k121162j586044j175000q62495
111644B135206o27313m52099l22860k28474j60219j11339p6675p1920k8405j9156j2802k3944%Z2P069L750N598K0311
111546C6728J8572K7256L9642O4909Q5726J21659J71119K38538L29547M51198O12203Q23174J096834J448207J894717
111531G460029K456207L154814M014670N061393O321338P820568R583552J1631571J3980884J6640677J9610906
111520A07736609K2880113K6423379L0200551L4154933L8212604M2282538M6257664N0016964N3428647N6354384
111510E07948386N8654483O0193825O0848292O0511365N9100493N6562840N2880015M8071395M2195761L5351034
111500A042317889K7672020J9326194J0507712J429927p683185j6606193k5121486l3028069m0149440m6340085
111490I32325284n1490256n5528853n8424302o0183497o0848959o0494527n9219878n7144307n4400167n1126348
111480C63464190m7462158m3541895l9490295l5419037l1424295k7585378k3964319k0606327j7540919j4783564
111470F1646003j2337658j0196687q346396o766886n434523m323603l407756k661050k058834j578310j198904r02428
111458B432968o73121m97551l64468k64588j90361j35735r5924o7186n0384l0742k1010k3072o383m290q153%s642
101801@N396K844M234O245R126J8303K1653L0968M3892O1651Q5817J18376J61816K19190K94213L91315N15709O73417
101783B664165Q71258J116802J418252J784259K223642K745039L356442M064652M874653N788923O806712P923332
101771D5638131R129492J0410738J1747075J3112777J4476502J5801702J7047387J8169240J9121071J9856575
101761A94510690K0331309K0504835K0342871J9819361J8918322J7635320J5978497J3969017J1640896R040178
101751C62691296O223484L255990K08924k843255n825888q667130j1300830j3669068j5724264j7430701j8765440
101740B78153118j9718581k0292889k0502854k0373259j9937379j9234942j8309964j7208621j5977221j4660428
101730I1936980j3299755j1932408j0590470r300441q083097o953626n921993m993481m169333l447472k823216
101719A0421688k289971j839880j464361j154600r01902o97996n35214m06631l06116k28348j68788j23633q9740
101706B14508o4551m6014l2505k2757j9302r605o581m467l004k003l719%Z1O997L774J3693J2722J8849K7673M4727
101607A28435O4351Q8552J25727J76894K46633L40744M66484O32799Q50557J132758J494696J954052K530868L247394
101593A3480944M127738N197311O482017Q007162R796107J1868627J4239048J6914198J9891283K3155772K6679460
101582A59839667L0418871L4314136L8288567M2249039M6087330M9682483N2904214N5617314N7686909N8984376
101572F26072906N9393634N8817470N7183523N4449546N0607547M5686509L9753405L2912364K5301932J7090525
101562A067269361Q470247l50575r155767j7730102k5868025l3381809m0108697m5916660n0708466n4423952
101552G98095555n7040392n8571105n9062452n8589502n7250726n5162054n2450700m9249106m5689288m1897883
101542B63132347l7992039l4076264l0240294k6557916k3086684j9868404j6930238j4286259j1939309r883007
101532C8271933q103768o582753n297626m224112l337294k612643k026802j558139j187080q96285o70683m97400
101520A277348l65611k66360j92336j37659r7656o8670n4388l0738k6797j2352q387n642o299m453%Z0O976L755J3312
101423B4043J2483J8484L0677M1348N9685R0496J23703J73963K42431L34778M58095O21118Q34449J110762J464947
101408E641462J914203K478007L177944M037375N080872O333426P819380R561107J1577409J3881711J6480066
101397H7982962J9369107K2534007K5946633K9564018L3327322L7161475M0975595M4664358M8110340N1187385
101387D40823202N3764916N5713067N6908431N7240145N6615989N4968121N2258086M8480723M3666666L7883196
101377I58322542L1233286K3852827J5906100P579702r24730r398659j7635129k5437156l2625516l9045546m4572545
101366H67255176m9115574n2619479n5065108n6467827n6874512n6359298n5018385n2964318n0320022m7213007
101356C35237646m3769989m0112176l6351393l2587142k8904617k5373651k2048500j8968361j6158467j3631607
101346E7331743j1389916r426814p728929o277961n052353m028766l183307k492499j934020j487217j133419q56098
101334B340444o40895m75544l49740k54953j84222j31948r3678o5927n2072k9632k5897j1922q105q436k582m891%Z0
101238@L472J865K797M153O114Q916J7715K0992K9958M2366N9379Q2472J13515J54829K09267K80276L71961M89126
101220A899173O37300Q22714J052255J333336J673721K081269K563585L127606L779087M522041N358109O285923
101208C5136119P300477Q392552R548253J0748694J1969901J3182944J4354391J5447028J6420936J7234824J7847649
101197A77583768J8220403J8318027J8111321J7578742J6707997J5497279J3956078J2105480R977903P616252
101187C25673250N072528K405951l19334l036804n680253q186468j0497728j2564006j4344749j5810137j6941795
101176B45770455j7732919j8187862j8321206j8156433j7724280j7060902j6205947j5200670j4086172j2901851
101166H0192213j1684114j0465397r273494q131195p056200o061275n154611m340307l618974k988359k443990
101155H974297j979785j588614j262775r94407p75809n99674m59265l48508k62048j95243j44148j05462p6461n4936
101141A27162l9114k7600j9301j6216q171n591l790k547m832%T9940L0311J6255K4350L6145N3164P7480J11881
71185C49586J60074K26914L18691M43440O11286Q34799J129367J513512K009173K641863L440678M438086N669444
71172B3786913P172175Q984564J1144112J3685467J6637893K0022389K3848498K8110972L2786490L7830643M3175450
71161B67185566M8727714N4368466N9953762O5317055P0273219P4624271P8166684Q0700023Q2036548Q2011300
71151I63364608Q0492047P7388475P2659960O6321291N8445842M9165820L8669375K7194626J5020807K457017
71141A451179868j0170819k2534003l4315283m5222373n4999997o3439726p0387113p5745800p9478468q1604775
71131I13281511q2196567q1370819p9280945p6107036p2045779o7300590o2072552n6552552n0914928m5312769
71121B40126974l9874918l4704586k9879401k5452673k1455576j7899992j4781727j2083839r779911p837066o218636
71110B0158649m886426l802507k930607k237057j691415j266766r39799o90687n02865l62710k59190j83503j28718
71097B76399q9460o1603m2033k8418j9038l5847%Y1091
0@
##END=