##TITLE=Prediction 1
##JCAMP-DX=6.00
##DATA TYPE= NMR SPECTRUM
##DATA CLASS= XYDATA
##ORIGIN=
##OWNER=
##.SHIFT REFERENCE=INTERNAL, , 1, 12
##.OBSERVE FREQUENCY=400
##.OBSERVE NUCLEUS=1H
##.SOLVENT=
##$OFFSET=-1
##$SW=13
##$BF1=400
##XUNITS=HZ
##YUNITS=ARBITRARY UNITS
##XFACTOR=0.039673154244646035
##YFACTOR=0.04656612875245797
##DELTAX=0.03967315424466733
##FIRSTX=0
##FIRSTY=0
##LASTX=5200
##MAXY=100000000
##MINY=0
##NPOINTS=131072
##XYDATA=(X++(Y..Y))
131071@%T2022O536J4213J0951K3133K7691M0605N9002Q4953J21204J71343K40003L33087M58010O23959Q42141
109034C056831J126020J491495J957015K543555L274472M175124N272280O593240Q164649J0011012J2152890
109023E9818583J4604844J7373178K0453574K3828785K7466511L1317673L5315266L9373995M3390874M7246915
109013C60190198N0809997N3938921N6488587N8316092N9287519N9285058N8214034N6009415N2641319M8119107
109003I13300247M2493673L5857691K8343665K0119786J1383789K355062o734491j5650361k4165478l2069828
108993I75233755l9179048m5341516n0443563n4412573n7217854n8869389n9414628n8933668n7533208n5339724
108983D38548584n2492346m9135855m5414178m1464713l7413680l3372631k9436155k5680734k2164622j8928618
108973H3045052j5997515j3382036j1081077r084061p373256n925955m716413l717503k902051k243877j718528
108962D902780j303767r79824p29490n38060l93186k84666k04199j45134j02210p1323m9317l3791k2943j9002j7722
108947H146k848n298%Y4K5699L4926L1860M7383O9828J01967J47543K11536L00501M22961N89836Q14940J115509
108858C914489J512714K032177K704401L565054M655079O020491P711817R783074J2290193J5288861J8831690
108847H8310040K2964766K7723602L3128613L9180309M5854426N3097356O0822194O8905857P7187640Q5469642
108837F02644445R3519342J01074583J07851014J13551922J17880170J20551757J21310362J19942042J16289193
108828A614614830J10262787J01851996R1130354P8257836O3478475M7113394K9549518J1224457p391597k5815910
108818B114276140m3574019o0220028p5355206q8643793r9825133j08721560j15241735j19379459j21208307
108809A282106900j20872666j18575958j14566949j09125142j02546115r5127708q7157702p8903524p0604299
108800C84626837o2465358n4655181m7304551m0507644l4324643k8785506k3894440j9634737j5973618j2866828
108790D4214331j0262796q106222o341021m912638l769722k865270k157265j608948j188772q70139o30997m53344
108778A047197l22704k27597j59047j10127p5558n1368l4604l8104k8088%Y5P627J6737J8039K1804L2177M7055O8188
108687B11627R7912J39309J96397K74337L79683N20629P07284R51920J269210J676388K193331K842505L648737
108674A5109269M638767N840549P282238Q990884J0990774J3301503J5935753J8896926K2176700K5752677K9586292
108663A78502332L3621195L7782290M1975651M6089469M9996174N3555785N6620470N9040218O0669398O1373935
108653F79226917O1038676N9574560N6925065N3071500M8036696M1886740L4730535K6717074J8030488Q883084
108643A088121335m93256r856847j8966552k7592099l5523758m2580786m8618204n3531507n7259164n9782816
108633G33916346o1125326o1346899o0539650n8821057n6326757n3203161m9600351m5665577m1537716l7342816
108623B08407036l3190892k9173919k5365006k1818581j8571427j5644364j3044370j0766958q798612p119148
108613B4913759n703898m525633l556156k767606k133409j628974j232097r23178o85258n03926l67145k65023j89546
108600D31910j34321r4315o5620m5241l0907k5967j2239j5995p305%T1304M464K374P727P475J1026J6113K3336L3486
87279A06001M7615O7086R3652J29534J77512K41007L24172M31966N70207P45601R65717J238909J574164J980861
87265H694004K468425L045891L721343M501252N389752O387822P492487Q696021R985261J1341070J2738024J4144403
87253I8605755J5522520J6829446J8018149J9039039J9841868K0377950K0602550K0477362J9972895J9070622
87243B88358156J7764733J6063351J3989084J1578865Q882999N963500K891731k54483l394127o446477r334532
87232C46062800j1988254j4347373j6363648j8002411j9243397k0080787k0522538k0589077k0311467j9729220
87222A64884628j8887870j7836519j6625448j5303954j3918506j2511247j1118946r772318q495764p307432o219564
87211B6887060n239072m368241l605522k946358k383966j910066j515530j190909r26867p14507n45593m12691l09239
87198H18499k29558j68826j23011q8804o3518m5016l1612k1997j5166j0362p016p227k222m164%Y4P593J2674J4150
87107C4417K1824K8412M1668O0550Q7187J24399J75867K46347L41898M70128O40465Q64407J155764J530843K008556
87092G832732K610412L360341M284326N409777O764639Q376169J0269408J2465343J4978789J7816078K0972655
87081A15140669K4430700K8156970L2101045L6194152M0348822M4459500M8404302N2047953N5245959N7849903
87071E34379975N9713692O0700509O0690075N9585844N7321634N3867244M9232610M3470128L6674883K8982628
87061A044619222K0565541J1625921K388129o910768j6031101k4740871l2825553m0096858m6399970n1618855
87051H60574837n5679397n8550303o0241799o0802366o0313814n8885101n6645390n3736769n0307104m6503409
87041B98909385m2466059l8324030l4191352l0164749k6322475k2724183j9411702j6410515j3731729j1374358
87031D3788233r327717p573799o089489m848544l823286k985972k309852j769928j343451j010190p52518n55368
87019A398119m06078k94184k11163j50186j05840p3909n1144l5069k3829k1797j3711p059m150%Y4J7197R139K1718
86929D8054K4491L6028N2518P5858J08572J53974K16359L01226M15513N67859P68855J031295J370369J803808
86915F974779K351917L037459L885368M922220O175448P672252R438199J1495513J3861079J6544229J9544384
86904A05902847K2848699K6429844L0244113L4230063L8307872M2379599M6330524N0031634N3343322N6120234
86894E06168751N8217127N9495500N9830686N9119002N7284506N4284921N0116251M4815716L8462702L1177524
86884A018972686K3117997J4473876N459488l695100j2753841k1484816k9670106l7114820m3654776m9162386
86874H64488202n3550511n6774075n8829514n9752193n9612065n8507968n6561002n3907419n0691508m7058865
86864C09243082m3150381l9097205l5016834l1010402k7161139k3533914k0175716j7116896j4372958j1946725
86854D6660912r830676q009296o461331n161814m083835l199992k483540j909237j453907j096789q19666o06870
86842A543959m45160l23528k32968j66221j17513q2322n7145l9308k6794k4658j5603m425q314%Y4M229K250P292P071
86751B0842J0429J5245K2080L1689M5066O3504Q8662J22652J68103K28267L07081M09252N40307P06611R15360
86736C695150J174493J492557J878475K341229K889428L530790M271517N115586O064001P114004Q258335R484565
86724E7310130J0774588J2104318J3443668J4756864J6003124J7137733J8113510J8882610J9398625J9618869
86714B17544039J9506723J9033919J8182588J6946938J5334419J3366278J1077394Q515416N739172K816445j78767
86703C47884564l169367o078454q832613j1364990j3617981j5545391j7113924j8303987j9109742j9538491j9609437
86692A95600187j9351955j8803507j8007345j7010164j5859835j4603337j3284984j1945011j0618543r334965
86682D6780541q117642o983987n945782n009714m178054l449405k819484k281876j828723j451349j140757q88054
86670B685714o84756n23005l95703k96583k20218j61997j18065q5254o0995m3238l0371k1139j4578r964o747o941
86654F160k143m017%Z6652
0@
##END=