##TITLE=Prediction 1
##JCAMP-DX=6.00
##DATA TYPE= NMR SPECTRUM
##DATA CLASS= XYDATA
##ORIGIN=
##OWNER=
##.SHIFT REFERENCE=INTERNAL, , 1, 12
##.OBSERVE FREQUENCY=400
##.OBSERVE NUCLEUS=1H
##.SOLVENT=
##$OFFSET=-1
##$SW=13
##$BF1=400
##XUNITS=HZ
##YUNITS=ARBITRARY UNITS
##XFACTOR=0.039673154244646035
##YFACTOR=0.04656612875245797
##DELTAX=0.03967315424466733
##FIRSTX=0
##FIRSTY=0
##LASTX=5200
##MAXY=100000000
##MINY=0
##NPOINTS=131072
##XYDATA=(X++(Y..Y))
131071@%T2355L072O710N181J0962J3138J9287K8060M0450N7780Q1782J14694J59370K19409K99272M04417N41407
108700B004991P18020R43293J227537J582259K020001K554051L198027L965310M868309N917593P120878Q481900
108688D4602169R999252J1665218J3464694J5374300J7361766J9385688K1395769K3333582K5133936K6726812
108678B28443186K8039891K9001536K9544152K9607727K9143356K8116536K6509996K4325832K1586776J8336459
108668D92655447J4638570J0574934O242553J749784k788174p254179j1534175j5522034j9123920k2261944k4876879
108657D22499983k6929858k8402935k9298604k9638304k9460109k8815773k7767366k6383716k4736904k2898973
108647A48167441k0939033j8920881j6901177j4928225j3041339j1270714r637769q155822o831048n663567m648628
108636A7229238l777766l039904k422339j911574j494025j156542q86799o73552n06781l77736k78930k04059j47905
108623C51326j06216p5578n3284l7224k5767j7675j2014r982r316j490k780%Y4J4419J9596J7752K6334L8711N6387
108532A73199Q1383J16385J64914K31528L22049M43815O05941Q19577J098164J457614J916457K495830L219350
108519A3146206M112769N203387O519198Q087710R934458J2081183J4543754J7329847K0436536K3847881K7532717
108508A62775646L1442805L5511582L9653669M3765375M7726303N1402177N4648892N7317729N9261564O0341805
108498F43847547O0435713N9443676N7295990N3958644M9437683M3781735L7082459K9472705K1122436J2232522
108488A068111110L026742o257567j5379685k4105877l2219346l9529175m5877739n1146198n5257806n8178943
108478G43185516n9917917o0521761o0071326n8675088n6462154n3574911n0161796m6370576m2342468l8207303
108468B16880216l4079914l0057730k6219572k2625517j9317673j6321664j3648628j1297518r257529p510493
108458B6543978o033121m799000l780301k949155k278716j743927j322006r92718p38454n44180l97284k87350k05914
108445D71852j46198j02845p1685m9508l3881k2975j5438j6909j2413%Y4L300P276N587J1870J4167K0780L0202M3496
108354A36678O2073Q7771J22972J70706K34783L19924M31890N77604P65247J004309J305589J681114K143951K707897
108340A1752508L387033M195113N144800O246738P508491Q933381J0519274J2257371J4131133J6115368J8175646
108329A18366856K0268098K2339722K4329245K6168593K7784987K9103586L0050654L0557041L0561861L0016127
108319C89546770K8886108K7156176K4830932K1936397J8520146J4650324J0413511N911563J257552l428949q026970
108308E31653560j2419339j6497639k0166647k3348008k5982931k8033786k9484585l0340319l0625336l0380835
108298B84374135k9661768k8533313k7067202k5338096k3420246k1384543j9296125j7212572j5182719j3246058
108288F4031493j1432680r763669q251842o902763n715882m685759l803259l056681k432748j917468j496829j157323
108276C414590q86337o72400n05312l76196k77464k02746j46780j05285p4826n2693l6767k5422j7417j1824r831r130
108260D160j455k705%Y989N8005L0644M5654O7400R8590J42896K05209K91983M11617N74894P95486J090465J480853
100256E293696J992127K654665L504065M581246N932293P607902R662382J2152109J5133359J8659494K2777503
100245A09950841K7523915L2920261L8968185M5644526N2896648O0638405O8747157P7062246Q5385339R3482955
100235F93220478J01091431J07924384J13682608J18066117J20787857J21588433J20251017J16615516J10591018
100226A723818859J02165595R1412586P8492756O3651914M7213877K9569033J1159027p541592k6045695m3874667
100216B070021693o0578973p5756982q9070952j00259258j09144322j15635883j19729717j21502090j21100585
100207A157242931j18732104j14648944j09133965j02485760r5004688q6980461p8681810p0348530o2186038
100198C19040631n4362387m7007519m0214463l4042058k8518834k3647566j9410199j5772738j2689888j0109232
100188C3265747p974816o230098m820227l693712k803520k107706j569642j157959q46259o12698m39475l12308
100176F97327k19887j53392j06021p2608m9271l3129k2073m0946%S3275K408J274M172M013N908Q620J2462J7853
86885E6710K5342L5646M9675O8592R3835J27179J70769K27157K99328L90711N05160O46910Q20489J030600J281924
86870E830027J578904J925449K324595K778143L286239L846981M456029N106270N787574O486658P187115P869615
86858E8463599Q512304R091407R582044R959203J0198870J0279239J0181941R893219R404973Q715580P830457
86847A62112836O762254N530713M162117K688392J145873m26174j987225l497222m918291o216313p362283q333372
86835A49661305r113633r694337j0073929j0257623j0256703j0087561r770578r328909q787255q170687p503600
86824D6616490o808814o106880n415583m749651m120651l537057l004444k525785k101823j731468j412198j140464
86812C961672r12025p22280n66509m40087l38628k58099j94869j45754j08001p9283n7665m1553k9668k0988j4713
86797C1550j0219p033m797l242l330j023j906%Y4Q469M508J0690J2084J7788K5946L7502N3711P6220J07172J49308
86705E03398K06093K81842L81854N12535O81503Q97658J171209J513615J937455K456157L083623L833674M719360
86692B2179976N752100O940681Q290133R800552J1465885J3272812J5199760J7216204J9282296K1348983K3358627
86681A74108009K5246242K6941317K8370243K9459247L0137739L0341902L0018308K9127392K7646467K5572137
86671D56969003K2921839J9734401J6069489J2005941P639022L076733j564618o165349j0607531j4780008j8583024
86660D86715898k1932156k4761388k7025120k8699072k9780072l0284815l0247709k9718022k8756549k7432008
86650B08078987k5817431k3986723k2011592j9958949j7888893j5853293j3894965j2047418j0335051q773781
86640C7510891p371921o131284n048349m115472l322024k655430k102078j648066j279789r84388p50030n66107
86628A535953m23294l13566k30130j67337j20559q6060o0872m2664k9630k0392j3906r398j1533k295m317%Y4Q545
86538H545M542J0820J2188J7929K6138L7758N4045P6650J07716J49977K06896K82774L82893N13625O82547Q98497
86522C473540J171599J513207J935755K452503L077136L823232M703557N729208O908635Q246512R742585J1390478
86510F4167947J3176593J5079167J7067586J9102063K1133771K3105499K4952902K6606332K7993265K9041212
86500B81426337K9681037K9850489K9497773K8584924K7090769K5013225K2370779J9202959J5569726J1549760
86490E19837778P237700K740459j827175o347409j0704495j4789653j8505579k1770284k4520039k6711284k8321465
86479C76318554k9348738k9810697k9742201k9192540k8222120k6898917k5294932k3482825k1532911j9510654
86469A13282019j7474705j5475552j3554751j1744690j0068837q542350p172981n962148m906104l997113l224572
86458A1158216k576023k038036j596938j239383r52771p25535n47316m09019l02827k22129j61432j16243q2936n8631
86444A28997m1072k8510j9611j3367j2317p785k201m134%Y4K496J315M294M120O055Q819J2728J8201K5790L6210
86352A20028N0372O9428R4809J28267J71917K28268L00243L91187N04844O45306Q16931J024206J271566J563168
86338G380540J902599K292559K734488L228188L771430M359600M985397N638602O305999O971413P615942Q218377
86326F5405134Q755815R204458R540584R741632R787367R661043R350509Q849165Q156701P279574O231127N031390
86314A66994499L706481K287693Q10272o88041k168609l593557m927377o138406p200059q091786q799682r316729
86302A22874699r642696r783693r751452r562381r236476q796149q265072p667074p025163o360713n692833n037930
86290B6053067m409470l817910l270788k772925k326730j932556j589081j293694j042867q32479o58108n15263
86278A591196l99574l06919k33524j76011j31422r7215p1245n1729l7213k6526j8733j3110r091o246m253m443j358
86261B584r04j680%V753L3732J7964K6841L9741N8303Q4750J22065J74194K46290L45007M78808O58314Q96668
81493C182677J209872J617115K141007K807701L646852M691339N976694P540201R419579J1651252J4268170J7297219
81481H5449678K0756274K4651004K8971571L3689449L8754556M4093031M9605858N5168688O0633034O5829057
81471E07602200P0570006P4658319P7893228Q0079579Q1037502Q0612368P8684459P5177711P0066860O3382444
81461A259764676N5213142M5705173L5058580K3520511J1375782j064793j3477609k5540267l6945484m7414102
81451A306195609n6706410o4631154p1051756p5889496p9123605q0788429q0968042p9788767p7410242p4015648
81441E65822060o9801762o4969404n9714786n4222164m8657998m3166813l7868678l2858265k8205261k3955883
81431A02401046k0135260j6750349j3793169j1244086r074977p252129n738756m497100l490098k682612k042286
81420E700224j540049j150353q51185o23922m53068l25941k32311j64046j14774p9562n4648l7191k5080j6759l1335%Z1405
0@
##END=