##TITLE=PROTON_400MHz
##JCAMP-DX=6.00
##DATA TYPE= NMR SPECTRUM
##DATA CLASS= XYDATA
##ORIGIN=
##OWNER=
##.SHIFT REFERENCE=INTERNAL, , 1, 12
##.OBSERVE FREQUENCY=400
##.OBSERVE NUCLEUS=1H
##.SOLVENT=
##$OFFSET=-1
##$SW=13
##$BF1=400
##XUNITS=HZ
##YUNITS=ARBITRARY UNITS
##XFACTOR=0.039673154244646035
##YFACTOR=0.04656612875245797
##DELTAX=0.03967315424466733
##FIRSTX=0
##FIRSTY=0
##LASTX=5200
##MAXY=100000000
##MINY=0
##NPOINTS=131072
##XYDATA=(X++(Y..Y))
131071@%T1503M9197K1811J68016J68469J69905K33672L18389M29774N74697P61265R98877J298215J671158K130583
109554H994028K690064L363411M164058N104299O194364P441364Q848141J0412066J2123868J3966573J5914639
109543I9216875J7933410J9978961K1998451K3931027K5709339K7261652K8514521K9395932K9838771K9784447
109533C53563386K9186449K8013611K6252835K3911098K1016488J7618227J3785545R605450N179504O19723l956132
109522E24796184q429602j2686639j6622423k0145652k3182032k5676781k7596051k8927227k9678145k9875329
109512C01976303k9561452k8792182k7632691k6154019k4429554k2531778k0529456j8485374j6454651j4483675
109502G2921471j2609614j0860430r255341p805596o515509n383595m403783l566572k860133k271253j786159
109491E603486j391164j073162q19983o20609m65292l45576k54267j85345j33853j30747j29157n4331%s1K06081
109387B06081K90811K16212L01422M16317N69663P72219J036991J379447J817660K372338L066726L926302M978246
109374B1350435O250626P771290R566418J1658768J4065616J6796477J9850668K3214888K6860926L0743721L4799962
109363B22929795L8947446M3085369M7095736N0845958N4192718N6986999N9080174O0330875O0612324N9819700
109353G53927094N7877088N4743520N0417649M4940661L8397096L0913419K2654293J3816697M622149m692501
109343A067617165j3885223k2719248l0973208l8450342m4986258n0454796n4771742n7896238n9829945o0614112
109333F33036053o0324901n9067324n6968297n4169272n0818902m7066182m3054369l8915949l4768801l0713587
109323A57168469k6832371k3188320j9826359j6774582j4046188j1641766r551739p758779o240097m969491l919108
109312A2419669l060883k367645j813933j376520j034716p70469n68333m15315l00675k15661k89997k05522%s1N5469
109208E5469J32417J34260J37225J90014K60673L54281M77013O36240Q40632J100181J426178J831101K328379
109195I904063K932038L656194M514381N518719O678933Q001235R487130J1132180J2924835J4845375J6865116
109184A06460199J8945944K1040294K3091651K5035659K6801829K8315879K9502611L0289239L0609008L0404916
109174C70497229K9633292K8267021K6298154K3739702K0626438J7014581J2980347Q617356M033074o55598n327264
109163E35724332r861265j4142849j8068005k1547643k4510917k6907487k8708673k9907432l0517280l0570240
109153C00982541l0114046k9208793k7923289k6331347k4508228k2527424k0457921j8362035j6293866j4298374
109143G0957218j2411018j0657918r056421p615986o339266n223323m260845l441335k752184k179618j709489
109132E309815j327892j021631p78545n87696m39460l25538k38900j73692j72453j71710k2215n0083%Z606R61158
100513I61158M19992N86266Q10770J110795J507615K026986K699591L561340M653469O022355P718938R797703
100501D1876978J2315081J5327259J8887321K3041747K7826310L3261485L9347579M6059801N3343622O1110797
100491C72397980O9236448P7557648Q5873881R3949711J01519895J08296999J13981419J18273555J20887594
100482A261975130J21566271J20095763J16319779J10151879J01585074R0697901P7656299O2710963M6190027
100473B108949086K8487387J0047174q654748k7131183m4904700o1528128p6603251q9796568j00851299j09595031
100463A628418739j15942716j19895123j21533055j21007989j18529926j14353398j08762605j02056613r4535464
100454F11801850q6487880p8181052o9852846o1706507n3907806m6584434l9827284l3693275k8209259k3376638
100444H9974869j9176269j5573355j2522071r969693p860161o136976m745450l634331k756883k071470j541788
100433C986422j136772q30311o00815m30714r87810%T0505L4993J5473O1964M7721O6004R0445J22786J65135K20008
79914H24529K90357L79577M91494O30326Q00596J007014J254299J546940J888928K283411K732314L235951L792595
79901B1158331M398106N045568N725051O423455P124526P809049Q455229R039297R536301R921097J0169470J0259351
79889A15064831J0172061R893502R415217Q735238P858654O797845N572336M208274K737524J196451l75584j937886
79877A79338463l450177m874328o175948p325764q300702r084598r668560j0050913j0236812j0237522j0069474
79866H9863665r753111r311686q770002q153246p485917o790928o088907n397693m732046m103547l520662k988942
79854A2766978k511333k088537j719419j401422j130952r03742p15159n60464m35019l34432k54665j92095j43536
79841C76203j06250p7916n6609m0747n2262m2419%s2J59398J04164J54042J74031K39306L26006M39976N88229P79043
79734B964195J022009J328020J709185K178628K750166L437850M255330N215082O327458P599618R034348J0628852
79722E8450741J2373551J4251008J6235066J8290281K0371796K2425687K4389920K6195881K7770552K9039229
79712B69793712K9928735L0370938L0306449K9688222K8484871K6683427K4291354K1337595J7872560J3966973
79702E22724836R709584N203873N63865m090648q639257j2966110j6964812k0542767k3624713k6155240k8100239
79691C97118372k9447166l0204245l0398666l0073989k9286937k8103847k6596980k4840933k2909361k0872107
79681A24384141j8792920j6727749j4723662j2818356j1040183r408607p935017o623750n473269m477380l626419
79670A2736829k908351k309749j816616j415045j091719q34275o31520m73547l51768k58870j88737j36331k14280
79657A06021l2389p3632%s1P5809J22767J64547J52941K11013K88433L90585N23973O96314R16614J195178J543552
79552F281726J974372K501086L137556L897491M793736N837391P036795Q396398R915561J1587369J3397504J5323309
79540I4080294J7333117J9385944K1431671K3411753K5260529K6907145K8278056K9300029K9903540L0026383
79530C45318461K9617283K8639306K7072809K4917715K2194911J8946629J5235708J1143733O768128K218306k388863
79519E29684126o934047j1300585j5379469j9073851k2302859k5004454k7137260k8681236k9637265l0025708
79509C14207392k9884105k9264198k8228513k6846749k5192161k3338206k1355531j9309517j7258370j5251843
79499G8278199j3330544j1525776r859868q346839o993359n799870m761773l870627l115272k482835j959610j531758
79487D700068j185868r09352o90715n19708l87372k86040k09252j51659j68278j08842q2982%s1L2795J4534N8007
79382A05336M4813O2027Q5061J15562J55535K07376K73893L58327M64334N95955P57529R53593J188697J467205
79368F835243J793013K169232K597834L079261L612021M192325M813733N466913O139484O816014P478197Q105202
79356F3098472Q674234R161295R542115R793224R893130R823508R570362R125058Q485159P655006O645956N476289
79344A66943808M170723K759570J277594k37429j746298l210080m591773n857866o979682p934445q706006r285205
79332A26602911r669864r864434r879324r730004r435914r019297q503993p914297p273924o605126n927997n259972
79320B7518765m615541m006120l440120k923116k458145k046046j685861j375219j110728q88312p03524n51794
79308A714239m28637l29791k51332j89732j41884j05109p7142n6089m0405n1883m2235%Y9297
0@
##END=