##TITLE=PROTON_400MHz
##JCAMP-DX=6.00
##DATA TYPE= NMR SPECTRUM
##DATA CLASS= XYDATA
##ORIGIN=
##OWNER=
##.SHIFT REFERENCE=INTERNAL, , 1, 12
##.OBSERVE FREQUENCY=400
##.OBSERVE NUCLEUS=1H
##.SOLVENT=
##$OFFSET=-1
##$SW=13
##$BF1=400
##XUNITS=HZ
##YUNITS=ARBITRARY UNITS
##XFACTOR=0.039673154244646035
##YFACTOR=0.04656612875245797
##DELTAX=0.03967315424466733
##FIRSTX=0
##FIRSTY=0
##LASTX=5200
##MAXY=100000000
##MINY=0
##NPOINTS=131072
##XYDATA=(X++(Y..Y))
131071@%S8793L2259J53701L25176K20870O20935P01200Q56063J142786J543396K065223K737896L595908M678671
112265A8674084O030269P698880R735744J2193621J5124700J8577890K2595537K7209617L2437484L8277397M4704024
112254B53259247N1664226N9073477O6813274P4729928Q2635069R0308179R7501322J03946167J09363183J13472761
112244A102766833J16007846J16727419J15430150J11967338J06254292R8279289Q8109365P5892363O1854860
112235A993289755M6295887K9576640J2106625n672975k3307823m0349722n6375540p1004667q3913982r4849514
112225A705794684j03634235j10171669j14445335j16514248j16505056j14601429j11031589j06054813r9947780
112216G12888530r2991553q5459834p7609018o9670359o1844396n4297643m7161364m0532203l4474319k9022653
112206A19825188k4186957j9956229j6303234j3188864j0566118q383603o588439n128589l954586l020747k285906
112195F261916j713766j272949r55728p86768m54862m98992l72175j72126l4550%Y8L4087J73178L80279N16095
112104A103639M66298Q14880R85792J311489J766168K356460L114813M078764N290899O798487Q652720J0907456
112092D7647865J3617433J6835857K0611382K4984490K9983360L5619349M1882302M8735954N6113764O3915513
112082C99947269P2005115Q0209961Q8322211R6102234J03284412J09585278J14713859J18383855J20327163
112073A302881357J20308029J18137037J13684025J06889041R7770463Q6429588P3051151N7899493M1310415
112064B118360599K3679001N444047j2930094l0973149m8228937o4274531p8737461r1309986j01759666j09935758
112054A609334065j15771242j19280586j20553626j19746199j17068268j12770465j07129942j00436377r2978948
112045F03598412q5034850p6859833o8681017o0692062n3050645m5877992l9260215l3251034k7875534k3134556
112035H9880674j9009355j5466249j2460996r942729p857328o150202m768424l662310k786453k100317j568455
112024D107856j160461q69713p14455o32213m68209p9801j51813l1191%U870J091404M71915O56507R04813J235400
108141D360039J670975K238878K971469L906366N086451O559554Q377725J0596028J3270736J6456920K0205374
108130I5700515K4558896K9548035L5186390M1465716M8351097N5776526O3641285P1807548Q0099611Q8305116
108120F34440735R6178575J03447349J09820123J14997682J18685655J20608662J20525124J18241889J13627697
108111A650573491J06624547R7256035Q5631934P1948446N6483866L9589691K1677529L202491j5356030l3515017
108101B084116983n0808734o6808563q1140641r3500242j03662172j11486702j16920869j19995349j20817321
108092A218976390j19560064j16450095j11752838j05757771r8763967r1066784q2946372p4658367o6427055
108083C51593077n8441010n0851107m3770643l7277219l1415992k6203856k1634179j7681701j4307336j1462593
108073C8547441r093495p143875n558022m282681l268464k470733j850043j372239j008292p33951n29280l78144
108061H58222q58222%X476M511K001K806L899N368P322R891J3238J7550K3046K9973L8609M9253O2223P7837R6411
101568D43938J18230J43531J72478K05136K41443K81175L23937L69126M15930M63318N10054N54715N95726O31415
101554E470152O60072O80023O89711O87788O73186O45204O03561N48451M80563M01072L11622K14270J11398N632
101540A2182705j00282k03586l01643l92033m72664n41847n98352o41439o70863o86857o90079o81561o62626o34815
101526D904058n99790n59261n14911m68324m20943l74025l28623k85572k45495k08813j75763j46423j20742r8565
101512C56808p9660o3746n0512l9636l0802k3707j8072j3646j0206p562n550m035k907k075m692%Z2K8827J2511J7427
101412E8765K4046L2872M4516N9718P9357J10184J38665J79300K29638K91293L65943M55272N60880O84191Q26335
101397D140975R88016J169379J369861J588062J821630K067168K320190K575125K825375L063450L281166L469907
101385C0680304L620955L725864L776856L767246L691821L547215L332178L047786K697532K287299J825207J321353
101373F7321616P87432K36285l18632q63789j386140j873633k315679k703510l030461l292119l486371l613330
101361D5461669l675174l675893l620977l517072l371604l192428k987473k764458k530620k292532k055944j825715
101349I951779j605765j399094j207825j033288q76106p36310o13446n06691m14947l36940k71296k16615j71514
101336E61942j34676j04874q0992o2032m7118l5495m3687j4203j0649p910n819m241l063k191m992%Y4M5228J9795
101245F5023K7645L8252N2433R4012J05837J41709J87988K47069L21701M14962N30239O75903Q43540J047820J289113
101230F083246J570686J895170K264276K678495L136781L636260M171962M736623N320562N911667O495513P055619
101218E4956860P573850Q030974Q407350Q683716Q842075Q866582Q744438Q466692Q028925P431744O681074N788176
101206A50502456M769431L645832K442266J186568r1569j361769k594198l760723m835979n798270o630271p319483
101194A30154291p858452q244739q480663q572842q531594q370203q104153p750318p326198o849220o336114n802419
101182C7927376n262102m727293m208147l712802l247434k816376k422295k066404j748691j468151j223017j010960
101170D013704q29293o75117n45465m37409l48137k75018k15637j67816j63052q8833o8259n2015l9308m9885j5488
101155D2972j1659q694o423m699l407k447n643%X9K1571R530J3351O3661M5188O2211Q4863J14693J77029K14018
101069H06115K82117L68464M76793O11251P76323R76733J222406J504948J840449K229133K673761L175732L734688
101056B0678913M348137N011091N715773O451415P204163P957151Q690727R382869J0009800J0546755J0968935
101045A06965729J1252544J1375931J1320708J1072835J0623565R970197R116596Q073387O857863N493527M009337
101034B06132219K438667Q18022q14391k420175l962268n406354o722128p884332q873504r676436j0286311j0702547
101022A42640462j0930361j0980119j0866499j0607547j0223680r736689r168796q541815p876420p191585o504150
101011D0012801n828557n176726m558043l979463l445700k959457k521705k131982j788671j489294j230756j009571
100999C892876q22056o64488n33222m24793l35967k84183j99247j54665j50617q1174o2213m7286l5641m5295j3878
100984C8151j0419p749n709m166l013k158m937%X9L8769J7091K3925L3182M5593Q2783R2843J24612J65709K18319
100898H42826K84959L68468M71983O03592P54755R39869J159196J415940J712767K051543K433040K856655L320109
100885A9215702L819196M347568M896605N455367O010684O547353P048496P496054P871404Q156103Q332696Q385578
100873I7582806Q301841Q072063P690998P158088O477793N659671M718226L672490K545382J362848J52858j055716
100861A52339348k234250l355505m394669n330258o144832o825485p364112p757421q006740q117618q099269p963903
100849G6745286p725982p401457p007019o559413o074817n568351n053675m542724m045545l570245l123021k708277
100837A3364760k328776j985845j679597j409155j172874r68552p93606o45249n20608m16847l31234k61215k04442
100824F46760j58800j56973q2811o3528m8329l6460k7278l3907j0528p840n784m226l060k195n041%Y2K1825R588
100735C1413J3409J8576K5496L4666M6692O2297Q7497J10017J42854J83734K34055K95298L68965M56530N59339
100720B670838O78533Q14920R68862J140152J327880J530333J744891J967980K195044K420577K638217K840893
100708B2939120L021035L170847L282621L349088L363791L321447L218283L052328K823629K534381K188947J793776
100696E8059293J357215Q89206M00910r5747n88554j065525j515377j927977k294707k608760k865323l061657
100684D4682997l197087l272878l292041l259072l179644l060275k907995k730020k533466k325093k111105j896996
100672A0917325j687463j486344j296625j120471r59286q13804o84178n70090m70854l85506l12905k51800k00901
100659F77098j58935j24673r6976p4800n7214m3396l2641m2177j2402r295o900n075l696k669j908m341%Y7M485J962
100564F447K739L789N194P051R484J2634J6674K1794K8215L6176M5935N7757P1909Q8644J08180J30691J56276J84940
100546I94529K16571K50915K87563L25929L65251M04586M42826M78724N10921N38003N58554N71218N74771N68197
100532G088558N50744N21991M81892M30802L69492K99134K21265J37738N0647l7764j25190k09373k88189l59750
100518I131997m22462m75103n16839n47255n66340n74464n72332n60925n41446n15228m83690m48246m10266l71019
100504B126382l31633k93074k56135k21425j89378j60272j34234j11279r1317p4186n9673m7526l7482k9276k2645
100489F6847j7349j3165r895p368n433l971k874k061m731%S00480
0@
##END=