##TITLE=Prediction 1
##JCAMP-DX=6.00
##DATA TYPE= NMR SPECTRUM
##DATA CLASS= XYDATA
##ORIGIN=
##OWNER=
##.SHIFT REFERENCE=INTERNAL, , 1, 12
##.OBSERVE FREQUENCY=400
##.OBSERVE NUCLEUS=1H
##.SOLVENT=
##$OFFSET=-1
##$SW=13
##$BF1=400
##XUNITS=HZ
##YUNITS=ARBITRARY UNITS
##XFACTOR=0.039673154244646035
##YFACTOR=0.04656612875245797
##DELTAX=0.03967315424466733
##FIRSTX=0
##FIRSTY=0
##LASTX=5200
##MAXY=100000000
##MINY=0
##NPOINTS=131072
##XYDATA=(X++(Y..Y))
131071@%T0452N6750K4850L4712J73621J20418K14028K46799L34065M48056N95439P84021J022785J321870J692465
110605G069879K146609K696885L355978M136105N048285O101500P301725Q650887J0145794J1777089J3528319
110594H1959055J5375196J7285126J9217121K1122140K2943936K4620433K6085640K7272041K8113423K8547964
110584C12542075K8521480K7990607K6925740K5313510K3158612K0484845J7335200J3770989R869977N723608
110574E11636643J433464k892875p146314j1220805j5017745j8449941k1444907k3947346k5920692k7347649
110564C59681833k8229775k8586158k8451357k7872738k6907431k5619110k4074774k2341727k0484897j8564587
110554A08549279j6634745j4741768j2923830j1210690r623922q177488o878548n728440m723749l857362l119502
110543A0929235k498654j982362j557917j212873r35446p14785n41133m05905l01681k64686j48732j07896j54309
110530A02856l0918k2062m9876%Z9K18950R6368J34836M33261L64124M99092O77783R11932J215575J605205K099861
110427H256987K721079L492688M440400N591147O972145Q609651J0527414J2744828J5274841J8121684K1278530
110416A18031394K4725223K8426253L2329125L6363388M0440432M4454293M8283540N1794350N4844735N7289853
110406E36982586N8988201N9808418N9636359N8382011N5985796N2423839M7711756M1906631L5106933K7450254
110396A034382784J9108924J0283634J195445p923418j6839418k5327651l3181269m0219839m6296177n1301275
110386H43881740n5167134n7867406n9415937n9863422n9292495n7811639n5548399n2642302m9237944m5478613
110376B91556449m1500722l7429288l3374547k9429768k5670171k2152877j8917704j5988641j3375786j1077574
110366D2639371r083111p374480n928878m720543l722378k907273k249121j723553j308407r83978p33113n41147
110354A363389l95761m74099j47041j05346k41142%s0O7266K9200J47913J03515J43121K57170K92857L95209N28451
110250A964702P00118R18989J195097J539674J965012K484206L110775L858144M738964N764301O942671Q278981
110238D3461634R773390J1420172J3206633J5112177J7107620J9154825K1206772K3208123K5096335K6803359
110228B25551040K8257875K9388045L0124652L0404497L0173851K9391792K8033174K6091033K3578224K0528153
110218E01522336J6994473J3049732Q782985M296490k98366m885649r349751j3580218j7476298k0950920k3933878
110207D54170936k6374106k8240873k9523965l0232818l0394776l0052597k9261425k8085428k6594345k4860103
110197A70550500k2953731k0942673j8888611j6845847j4860263j2968826j1199578r572046q097965o782240n624035
110186B1814685m617918l754988l023930k411952j905589j491350j156233q88071o75783n09499l80601k81713k46900
110173D70158j37390k00880l9210k8119o4559%S1552M1217J8034K5184L4844Q9259Q2994J12563J51268K01414K65714
98606A022491L47295M49702N76867P33036R22682J150341J420431J736993K103408K522049K993927L518299M092297
98593B3589818M710591N365098O044805O735706P420881Q080777Q693638R236166R684325J0014317J0203670
98582A09779792J0232379J0084046R746956R214984Q488319P573879O485441N243389L874150K409266Q84202o63079
98570A83353724k193690l669439n054411o316423p428253q368607r122742r682755j0047515j0222281j0218018
98559A01029590j0050518r739336r306665q776178q171940p517411o834606o143431n461199m802344m178307l597581
98547A6450074l065874k586390k160150j786373j462858j186348r52874p58060n97371m66318l60612k76272k09698
98534E80876j57698j17503q6752r3722l6461k6390j8922m3428%s0Q6795J15248Q6583J20118K05937K82532L45598
98429A242811M64026O17283Q13539J062207J373906J760357K234179K808557L496782M311644N264678O365267
98417C1815236P619634R029748J0592201J2297117J4127186J6056892J8052041K0069674K2058445K3959527K5708058
98406B11385759K7235165K8470471K9345046K9794638K9763051K9205440K8091358K6407302K4158587K1370382
98396D85227199J8087770J4374807J0312548N996151J531177k970700p396334j1635832j5587080j9159825k2279062
98385D56500819k4887579k6947523k8440950k9369370k9752395k9625596k9037773k8047820k6721416k5127715
98375A78542682k3336244k1414138j9423831j7421260j5454630j3563706j1779602j0125002q614731p256576o052283
98364B4100679m998645m088592l312240k657851k112666j663608j297822j003105p68186n82898m38270l26537k41087
98351F09172k30390j71376o0926m3925o0048m2507%Z9R1297J19260Q9697J57403J85088K90641L57243M78744O35633
98247B405006Q36101J089538J406493J798554K278118K858054L551216M369830N324729O424457P674264R075045
98235D9091405J0622232J2304776J4104220J5994018J7939145J9896107K1813407K3632545K5289538K6716993
98225B37404386K7846643K8612286K8952957K8816220K8161323K6962069K5209163K2911868K0098807J6817820
98215D91793542J3134823R131697M903284N53661l808118q072574j2134355j5896565j9274587k2199209k4618888
98204D13512711k6501057k7832445k8618435k8881572k8659350k8001455k6966683k5619703k4027889k2258366
98194A46145756k0375421j8438366j6499921j4605117j2790726j1085156r508730q074312o788140n650819m658375
98183A7670673l803311l075611k463637j954915j536785j196896r23594p06165n34998m01637k98792k20278k09164
98170C44890j56553n5474l9944n1384m1535%Z8L3273J4699K0593K8582P2070O8026R2548J24758J66638K20527K89148
98066A130862L75605M83364O16209P78161R73356J205888J479591J797797K163033K576701L038730L547231M098171
98053B4264699M685095N298923N927851O557376P170481P747984Q269060Q711927R054692R276300R357568R282233
98041A15604189R037951Q617202Q018002P244400O306689N221303M010413K701196J324826q4743j492184k862252
98029A63646992m161260n358447o427195p345984q099102q677006r076388r299924r355758r256751r019570q663679
98017F8905928q210287p681319p098487o482449n852154n224329m613162m030129l483989k980891k524598k116763
98005H607371j757260j444539j175954r48105p57109n98858m69226l64210k80064k13362j61045j20439q9246r6928
97991A31026l7834k7485j9782j4105l1820%S4068J110878M79921O67461R19654J255310J697431K273683L016809
83910A1421147L964844N161118O653931Q495805J0742242J3449911J6674180K0466007K4868188K9911038L5607670
83899A87416081M1949051M8899156N6390526O4320669P2549675Q0899504Q9155279R7068905J04365178J10750366
83889I53764390J15923147J19587484J21466893J21319376J18952120J14235003J07111966R7609306Q5840159
83880A955809844P2004627N6385266L9338006K1278849K667055j6014263l4278985n1658994o7724126q2099820
83870A895707459r4481508j04644945j12452043j17852049j20878263j21640753j20315782j17132805j12360011
83861H73949300j06289368r9222079r1455239q3270314p4923849o6640656n8609492n0981135m3868555l7348867
83851A61339746l1466621k6238056k1655861j7694123j4313139j1463870r091853p140514n553807m278207l264120
83840I179575k466750j846540j369255j005818p31946n27688l76901q54677%Z3832
0@
##END=