##TITLE=Prediction 1
##JCAMP-DX=6.00
##DATA TYPE= NMR SPECTRUM
##DATA CLASS= XYDATA
##ORIGIN=
##OWNER=
##.SHIFT REFERENCE=INTERNAL, , 1, 12
##.OBSERVE FREQUENCY=400
##.OBSERVE NUCLEUS=1H
##.SOLVENT=
##$OFFSET=-1
##$SW=13
##$BF1=400
##XUNITS=HZ
##YUNITS=ARBITRARY UNITS
##XFACTOR=0.039673154244646035
##YFACTOR=0.04656612875245797
##DELTAX=0.03967315424466733
##FIRSTX=0
##FIRSTY=0
##LASTX=5200
##MAXY=100000000
##MINY=0
##NPOINTS=131072
##XYDATA=(X++(Y..Y))
131071@%S9300J782R39J396K058L006M351O241J1942J4117J9850K7666L8222N2341P1049R7009J28246J69664K22508
111753H72387K89274L72803M76277O03180P57254R42411J162625J421782J723514K070971K466606K911896L407094
111740A9478074L950948M540455N170640N834384O522321P222814P922030Q604121R251524R845362J0365968
111729I8708641J0793496J1108604J1293203J1331203J1209266J0917491J0450022R805517Q987485Q004416O869747
111718B09479091N601597M222324K757890J237064l09494j850249l353833m790090o131071p351917q431623r353607
111706A81726082j0106122j0682433j1080813j1304326j1360458j1260574j1019274j0653674j0182630r625976
111696G4449802r003784q335687p640290o934688o234086n551555m897883m281551l708786l183707k708523k283768
111684I685494j908581j580969j298082j056471q52307o81594n40316m24590l30742k55394j95494j48339j12688
111671B99927q2801o1234m4888l2616k3491j6771j1867j0003n183l596k472j684j137p60j424%Y6J439L531M017M673
111576A3660O921J0161J4781K1303L5912M5998O4776R0403J25041J71400K32839L13459M18192N52891P24366R40428
111560C782531J209846J542269J948063K438053L023180L714039M520310N450105O509198P700226R021842J0467887
111548F1327549J2026654J3680245J5404161J7167115J8931169K0652223K2280880K3763706K5044859K6068056
111538B56346617K6778782K7126696K7068062K6568124K5603252K4162754K2250207J9884209J7098489J3941315
111528D86828507J0474214O770036K910457j016984m922135q715642j2312304j5634215j8613555k1194845k3336605
111517D01236929k5012333k6210768k6935482k7203839k7045408k6499961k5615174k4444187k3043129k1468778
111507A47757870j9776422j8018029j6240785j4486010j2788475j1176107r670013q284807p029160n906504m915853
111496A9465705m052654l309628k677575k146087j704178j340791j045199q07316o17879m68589l52141k62231j93512
111483D87925j41509j02550p3645n3448l8758k5904j6851j1609p925n360l593o773%Y8J683Q97J340J984K912M233
111387A3049O097J2612J4372K0320K8475L9556N4464P5697J01296J35946J80861K38518L11815M04080N19075O60972
111371B817205Q34292J043835J294535J591314J938856K341363K802259L323869L907075M550958N252473O006132
111359C7704166O803759P634321Q483870R335588J0170001J0965327J1697978J2343218J2875955J3271630J3507192
111348A54793005J3562100J3419302J3066160J2495250J1704984J0700039R491530Q096925O539678M848609L057031
111337B61774613J201667o78575k543956m355268o075201p669588r108522j0367265j1426924j2274861j2904842
111326A85571278j3316914j3517037j3516504j3331190j2980661j2487216j1874904j1168547j0392846r571566
111316F3413893q726860p878732p044640o239268n474419m759050m099409l499249k960126k481712k062141j698355
111304F489932j386419j121835q99789p15379n63796m40457l41100k61854j99270j50322j12411q4355o0865m4365
111290A07715l2054k2956j6296j1467r770m889l374k307j564j049j989%U075N4092K8695M2814O3301R2735J34611
108198D16248J93603K75887L89515N44854P55069J036647J409932J899648K535354L351791M389022N692326P311711
108185C0201607R301007J1716390J4614347J8048948K2068494K6711540L2002393L7946288M4524440N1689310
108175B98824764N9360443O7421276P5717351Q4056325R2210130R9919520J06901137J12857022J17486340J20498863
108165A235253171J21629587J20653678J17400822J11768037J03729955R3345744Q0761969O6210966N0004564
108156B100758493L2523328J4201826m489292k3063396m1038920n7960119p3416255q7058118r8610926j07882974
108146A653963647j14769687j19253057j21396761j21337527j19273530j15450720j10148059j03662634r6295487
108137F32376185q8338913q0065743p1721001o3516039n5625161m8184537m1293095l5015037k9383549k4405288
108127I4827822k0065254j6331722j3160932j0501355q297383o492380n031077l861331k935316k210218j648529
108116D292325j218028q91524o46456m64396l30518k33062j62827j12713p7307n2537l5379k3608m3970%S320J380P29
106781B109J085J601K340L392M869O925R758J3624K0046K6460L6007M8548O4858Q5854J12599J46320J88383K40299
106763A015077L03682L80223M71625N79544P05492Q50753J016259J202481J409308J635936J880761K141303K414156
106750A6006600K694970K978478L258572L528425L780657M007548M201285M354231M459210M509797M500575M427397
106738F2707745M287573M080034L805427L466157L066357K611808K109801J568935R98898M10186j86180p78973
106726H8147768j357066j909749k427026k899893l320578l682753l981687m214348m379452m477444m510424m482007
106714D6505341m397145m261896m083158l868400l625376l361841l085306k802807k520727k244649j979268j728348
106702H546420j494719j280312j086231r12851p59913o26658n11935m14310l32182k63861k07651j61904j25072r5728
106688B73093p2596n4548m0612k9959k2839j5527j1164p954n614l926k720j867j271q56n72j068%Y7J860R99J499K227
106591F585N761O095Q868J2785J8268K5867L6291N0455P0616R5465J30474J73919K31184L04492L97367N13795O58201
106574B746488Q35378J050379J308373J614432J973284K389009K864698L402074M001114M659656N373068O133942
106562C8351895O931915P753574Q582528R399628J0183363J0910419J1556422J2096778J2507651J2766972J2855452
106551A53896597J2757542J2462285J1963977J1262641J0364250R280674Q029385O632899N118017L514868J855860
106540B47138995J74544j495523l121851m674028o124560p449578q629351r648633j0496808j1167900j1660410
106529A72844897j1977037j2124296j2112048j1952990j1662076j1255954j0752385j0169674r526151q839672
106519F2472614q127198p404420o685465n982684n306499m665350m065697l512096l007327k552572k147610j791060
106507G224636j480596j213194r85339p93226o32934n00571l92386l04857k34754j79165j35527j01605p7046n5043
106493A38393m0217k9119k2044j4442j0201p138m951l401k316j563j684j317%Y5J897J014J518K250N443N948Q635
106399B6705J2427J7719K5038L6174M9239O7768R2428J24917J68311K22542K92715L81499M92656O30355P99101
106384C439594J003640J248806J539337J879629K273451K723626L231671L797440M418755N091088N807288O557388
106372D3011713P328543Q105076Q868701R598899J0273455J0869158J1362626J1731236J1954099J2013052J1893582
106361A57010140J1585658J1084385J0390464R510404Q456474P246394N902772M452321K924898J352414k32324
106350B29684000j796769l309745m742451o069306p268629q323111r220081r951585j0514267j0909113j1141043
106339A46437900j1218432j1152540j0956923j0646832j0238626r749209r195534q594143p960784p310096o655353
106328D2759428o008289n378977m775782m205353l672688l181214k732929k328552j967697j649055j370582j129683
106316D358627r23369p48425o01536m79406l78843k96835k30602j77618j35638j02690p8386n6885m2003l0744k3457
106301E2190j5625j1163p905n547l858l208j618j101p42m96r27%Y3R52N07P57J122J644K390L442M911O943R724J3494
106206D5886J9623K5829L4926M6793O2117Q1700J06466J37457J75828K22822K79752L47954M28739N23332O32791
106191C172015P57930Q99227J056724J229953J417838J618638J829904K048454K270390K491153K705602K908144
106179B4405972L092885L253821L385031L480907L536359L547021L509446L421247L281235L089481K847359K557532
106167F3408296K223896J851490J446364J015422N66240J06864l54390q09169j249287j666942k054923k406795
106155F2077066k717063k981321l196355l360211l472233l533041l544482l509520l432105l316996l169564k995591
106143B2848584k801042k591864k373794k152181j931858j717030j511212j317196j137050r72159q23272o90582
106131B829344n73814m72304l85108l11074k48929j97346j55001j20613r2988p1028n3754m0308k9948k2046j6645
106116C8438j1420q192n823m099k860j977j354r19o18m12p64%S7834K8545J5094K2497L3222M8614P0485J01257
88264C19714J44125K03247K83970L93070N39017P32246R85408J313605J734535K268566K938651L770066M789916
88251B0416136O026377P507614R260406J1308403J3670116J6356634J9369205K2696753K6313550L0177173L4226995
88240B17329362L8383387M2547851M6604241N0421204N3855856N6758696N8979587O0374590O0813318O0186395
88230G46254487N8412563N5444954N1276043M5940869L9518193L2129398K3935052J5129273N932130l419481
88220A070553481j2681982k1615652k9994942l7617927m4314364m9951887n4440057n7732081n9824265o0753306
88210F41627018o0591772n9442141n7429875n4695996n1389675m7661213m3655805l9508326l5339306l1252162
88200A60660747k7331661k3643502k0234887j7135856j4361207j1912773r781869p951750o399940n100318m024943
88189A2782041l145523k434576j866277j417009j065699p93927n85904m28342l10232k22601j58244j11454p7777
88176A64476n3776l6842k5008j6822j1211k0817%Z8170
0@
##END=