##TITLE=PROTON_400MHz
##JCAMP-DX=6.00
##DATA TYPE= NMR SPECTRUM
##DATA CLASS= XYDATA
##ORIGIN=
##OWNER=
##.SHIFT REFERENCE=INTERNAL, , 1, 12
##.OBSERVE FREQUENCY=400
##.OBSERVE NUCLEUS=1H
##.SOLVENT=
##$OFFSET=-1
##$SW=13
##$BF1=400
##XUNITS=HZ
##YUNITS=ARBITRARY UNITS
##XFACTOR=0.039673154244646035
##YFACTOR=0.04656612875245797
##DELTAX=0.03967315424466733
##FIRSTX=0
##FIRSTY=0
##LASTX=5200
##MAXY=100000000
##MINY=0
##NPOINTS=131072
##XYDATA=(X++(Y..Y))
131071@%T1649N3512K02779J11286J55033K13973K92569L96297N31764P06814R30595J213574J567466K005083
109409H380745K540047L186377L957908M867558N926436P142788Q520866J0059691J1751860J3582408J5527867
109398I5444551J7555604J9623553K1680409K3666410K5514700K7153327K8507832K9504325L0072972L0151651
109388C48875334K9689635K8651010K7017622K4791327K1995307J8674357J4894034J0738644O308187J714373
109378E33349830k924063p486451j1855411j5921864j9589564k2778846k5429435k7502147k8979443k9864866
109368C41017740l0181459k9969316k9282487k8185465k6749498k5048944k3157886k1147172j9081972j7019946
109358I1193595j5010031j3091832j1295540r642325q145073o809399n634792m615844l743451l005937k390065
109347G809306j881886j467438j133273q66848o56757m92882l66415k69844j96870j42294j49249j85550%Z3J63574
109251A63574J32707J27305J76750K43116L31286M47204N98011P92125J039300J350606J738339K215811K797022
109238A2153156L496174M327034N302129O431778P722996R178299J0794460J2561312J4460653J6465391J8539000
109227A21432382K0635411K2699422K4667695K6470379K8033351K9281032L0139679L0540987L0425846K9747982
109217C94074166K8477288K6602566K4133482K1101542J7559952J3582332R260278M699898J7498m665359r227084
109206E25616559j3551319j7531860k1076989k4112944k6586358k8465565k9740737l0422922l0542097l0144428
109196B73441340k9288941k8043888k6482984k4681807k2714503k0650961j8554579j6480619j4475223j2574987
109186E9492848j0807072r189743p733224o440787n309957m333747l501858k801775k219739j741546j353196j041367
109174C018837p93758n99286m48189l32039k43686j77176j27622j33079j64002%T168M76064K08183K90674M02085
106993A377006N51014P48045J006001J340155J768403K311297K991968L835841M870129O123044P622711R395743
106981D3941357J1465504J3850057J6559878J9595425K2944661K6580740L0459991L4520459L8681160M2842287
106971C01441519M6886522N0681549N4083834N6943612N9110939O0442583O0809383O0103718N8246559N5193670
106961H63943888N0940445M5525003L9029185L1577288K3332469J4490964N274359m079618j3327301k2229620
106951A034477062l0562380l8125637m4751631n0310841n4715873n7923023n9931557o0780878o0545879n9330908
106941E17498455n7262776n4483333n1142065m7389113m3369115l9216058l5049348l0971130k7064828k3394815
106931A08155874k0007029j6930371j4178642j1752855r643672p833873o300651n017704l957017l090320k390221
106920G053519j831035j389315j044170p77368n73304m18852l03158k17383m98934%S8788Q76768L85876N39903
88120A802547P48402J027762J398212J884352K515602L326556M357138N652483P262488R240890J1643835J4527834
88108F5388101J7947073K1950066K6575700L1848745L7775030M4336503N1486482N9145466O7197919P5490438
88098D99141523Q3831696R1994554R9720532J06726803J12715647J17386112J20447465J21633778J20718889
88089A474316999J17530779J11964433J03992218R3670898Q1144621O6643421N0477064L3024414J4718800l969839
88079B143513808k2554999m0554659n7512054p3014937q6712168r8326744j07664565j14618615j19168528j21375817
88069A302010722j21375336j19363745j15585877j10320000j03862915r6515753q8571223q0302845p1956516
88060C94156512o3744598n5842460m8387334m1479163l5183072k9533052k4536432k0178749j6428670j3242711
88050D5600271j0569500q353493o538049n067825l890573k958328k228134j662329j228546q99456o52378m68772
88038A082888j082888%W680K2139R613J3390J8480K5264L4219M5911O1015Q0323J04730J35248J72975K19083K74771
82343A217161L41224M19546N10680O15322P33823Q66075J011426J168559J335436J509225J686287J862194K031792
82330A5308750K189330K328628K443299K527020K573831K578446K536572K445200K302854K109781J868061J581627
82318D2793399J256184Q99036N18814J25134k71807o61671j034429j380782j692555j963008k187080k361516k484926
82305C1554793k557716k581953k561158k500023k404123k279588k132800j970094j797518j620621j444294j272684
82293F432221j109126r56157q15541o88333n74977m75398l89103l15295k52962k00961j58095j23170r5038p2630
82279B05435n4979m1222l0618k2527j6420j1857q482j9330%Z3M2117L5283L3076M5846O2957Q5649J15433J54114
82180E74475K03822K67010L46461M45256N66717P14328Q91603J101932J348373J633408J958674K324661K730407
82167A5107127L173206L648340M148872M665528N186675N698440O184963O628822P011591P314553P519513P609701
82155H3897331P570692P391308P064422O587631N963717N200864M312615L317526K238544J102149o2741j225975
82143A33358083k357481l428550m413044n288464o036779o645030p105626p416370p580209p604742p501542p285324
82131F0694922o973052o583008o133907n644087n130816m609746m094508l596479l124676k685783k284291j922707
82119G911862j601825j321020j078556q71879o97892n53186m34248l37608k59970j98286j49811j12121q3129o1059
82105A51272m4432l2034n0225p543j7038%Z1L2901J4590L9674L6855N0911O9673R4463J26874J68807K22479K90438
82008A147665L75541M80930O09952P66080R52759J173242J430373J726327K062345K438419K852998L302712L782114
81995B3101457M283520M796905N309951N808194O275350O693774P045068P310839P473521P517298P428994P198950
81983A00243821O821772O296922N629096M828341L909905K893791J804064O67892m85567j626407k725275l754611
81971A24503744m689806n510174o199690o747480p148016p401037p511209p487568p342784p092318o753507o344668
81959D4275487n884236n390008m878512m364510l860671l377374k922675k502356k120106j777744j475506j212335
81947D509454r86185p94308o33504n00350l91372l03198k32651j76828j33132r9293p3363n3700l8943k7980m3456
81932B1191k1191%Z3K2131R581J3334J8384K5110L3977M5542O0467P9524J03588J33641J70753K16053K70700L35831
81833A538616M12494N01581O03732P19243Q47966R89205J141632J303201J471109J641771J810847J973307K123560
81820A7078264K255623K363335K440631K481816K481887K436818K343850K201724K010854J773425J493403J176452
81808D2538082Q29747M61719Q1706l00439o74763j031661j362268j658836j915029k126142k289222k403111k468366
81795B7681417k487135k462935k400387k304929k182503k039266j881304j714401j543842j374276j209612j052991
81783E027836r06775p72589o51393n43552m48951l67081k97150k38165j89017j48552j15621q9126o8046n1459l8546
81768A01813k8603k1024j5310j1045p894j7937%Z1762
0@
##END=