##TITLE=Prediction 1
##JCAMP-DX=6.00
##DATA TYPE= NMR SPECTRUM
##DATA CLASS= XYDATA
##ORIGIN=
##OWNER=
##.SHIFT REFERENCE=INTERNAL, , 1, 12
##.OBSERVE FREQUENCY=400
##.OBSERVE NUCLEUS=1H
##.SOLVENT=
##$OFFSET=-1
##$SW=13
##$BF1=400
##XUNITS=HZ
##YUNITS=ARBITRARY UNITS
##XFACTOR=0.039673154244646035
##YFACTOR=0.04656612875245797
##DELTAX=0.03967315424466733
##FIRSTX=0
##FIRSTY=0
##LASTX=5200
##MAXY=100000000
##MINY=0
##NPOINTS=131072
##XYDATA=(X++(Y..Y))
131071@%V7677J001045M36029O08025Q39987J149630J558693K093465K785194L670383M790854O193525P929796
83382C3056626J0054450J2624017J5694492J9318412K3541285K8397416L3905291M0062673M6841690N4184256
83372C17680608O1998177P0154395P8485747Q6787665R4821108J02317945J08988845J14533573J18653342J21064767
83362A275486172J21514667J19794928J15756437J09321151J00491340Q9355225P6088367O0950497M4277705
83353B113036489K6470289P976869j0724397k9146347m6813911o3284465p8166245r1133742j01939235j10419937
83343A615855368j16500473j20190849j21580228j20827223j18147491j13799602j08070126j01258908r3665309
83334F01815159q5576128p7255649o8938117o0822720n3071000m5806476l9116108l3053273k7641766k2880465
83324H7653457j8748248j5208882j2215573r715069p651125n967345m609351l526348k672141k005684j491260
83313C842431j098369q01427n79314m14871r48450%T4676K94865J29680J81402K51398L45156M69456O32529Q44225
58624C148711J116111J461538J895586K434918L097470L901959M867212O011248P350174Q896846J0659380J2639543
58612F7480696J4831095J7218226J9774156K2460076K5224548K8003511L0720992L3290628L5618009L7603849
58602C32225786L9147896M0153416M0532070M0208887L9127056L7252192L4575765L1117414K6925898K2078566
58592F83344946J6679262J0854751M749808j478755p668770j3659751j9299788k4451956k8999820l2851738l5943748
58581E51274441l8240917l9737168m0453648m0435859l9749791l8477365l6711523l4551255l2096883k9445828
58571A81374204k6689029k3908168k1173708j8543773j6063772j3766708j1674005r796750q137181o690320n445606
58560A9485184m388468l501736k766884k165037j677777j287721r78928p37128n49814m06244k97355k15621j54901
58547C57570l57570%W8546
0@
##END=