##TITLE=PROTON_400MHz
##JCAMP-DX=6.00
##DATA TYPE= NMR SPECTRUM
##DATA CLASS= XYDATA
##ORIGIN=
##OWNER=
##.SHIFT REFERENCE=INTERNAL, , 1, 12
##.OBSERVE FREQUENCY=400
##.OBSERVE NUCLEUS=1H
##.SOLVENT=
##$OFFSET=-1
##$SW=13
##$BF1=400
##XUNITS=HZ
##YUNITS=ARBITRARY UNITS
##XFACTOR=0.039673154244646035
##YFACTOR=0.04656612875245797
##DELTAX=0.03967315424466733
##FIRSTX=0
##FIRSTY=0
##LASTX=5200
##MAXY=100000000
##MINY=0
##NPOINTS=131072
##XYDATA=(X++(Y..Y))
131071@%T1433J21488K88712K91507K96294M09129N59694P58544J018436J354542J784591K328908L010311L853823
109625A6075979M886153O134912P627524R389823J1444330J3808249J6491228J9492978K2800890K6387770L0209939
109614A84749775L4205817L8295264M2379838M6344105N0058171N3381385N6167261N8269380N9548124N9877850
109604F83276970N9154126N7300594N4274945N0073605M4734687L8338919L1008383K2902973J4214753N160430
109594A060440385m027622j3111267k1856866l0045269l7480925m3999616m9474353n3819182n6990730n8987546
109584F90647009n9847368n9642654n8474722n6466983n3757727n0492904m6819335m2878679l8802387l4707840
109574A88756410l0695675k6848329k3229652j9885479j6844939j4122329j1719332r627396p830127o305546n028128
109563A6619478l970563l105198k405164j845197j402185j055488p87053n81403m25487l08494l04184l02027j27035%s2
109458@N08704P16367N24371P27161R99015J359716J833344K448739L239857M245949N511472P085677R021740
109445C8222112J1375397J4202973J7558774K1491834K6042038L1235720L7080887M3562324N0636835N8229006
109435C49637900O6227892P4485016Q2814113R0992957R8767531J05858686J11971246J16805354J20069639
109426A217630334J21495615J20852520J17961727J12709747J05058889R5054695Q2829439O8601233N2668515
109417B094862714L5400048J7220885j404985j9994322l8065458n5159049p0857468q4801718r6704908j06361594
109407A674134145j13652592j18545204j21089079j21408249j19690054j16171869j11126570j04847700r7635214
109398F49967614q9782552q1565609p3233984o5004704n7058415m9537887m2548560l6160764l0413198k5317279
109388I9344662k0861929j7018477j3745397j0992627q705365o827222n302741m079259l108203k345882j753842
109377D603718j298914r52998o92692m98816o78807m81491%s2J36787L26299L28475L31607M56744O23263Q42564
109272C045739J128375J496939J967146K560532L301126M215103N330168O674685Q276462J0161233J2350806
109261F0508314J4860932J7698969K0861423K4331519K8076971L2048138L6176777M0375594M4538793M8543758
109251C68021188N2253962N5523123N8200528O0137362O1193740O1246144O0194770N7970356N4539997M9911494
109241I39192664M4135834L7307552K9562780K1075029J2048827K711567o696013j5930150k4754538l2950394
109231A005703158m0325447m6721390n2019354n6143179n9060374o0780831o1353505o0861396n9415246n7146431
109221D51876005n4199515n0724949m6872280m2784237l8591883l4410977l0339603k6456975k2823339j9480781
109211H5191466j6454752j3756104j1383426r325505p563740o074415m830710l804411k967309k292252j753924
109200D984918j329318r98015p42255n46884l99188k88678k83554k79811j17215%T7279O42205K80618L91713N41712
81908A856248P42171J007300J354307J803695K379451L109129M023708N157226O546079Q227967J0240429J2618925
81896E9066635J5394504J8591062K2222274K6288339L0772686L5638880M0827959M6256484N1815603N7371346
81886D04245772O2766422O7823622P2350916P6148153P9015178Q0761057Q1213929Q0230961P7707757P3586586
81876A155850353O7862805O0588899N1875753M1890865L0853470J9026728O707360n786721j8130038l0003640
81866A380735834m1108803n1179502n9992959o7377650p3218412p7458451q0098303q1191968q0840659p9184684
81856F89084443p6394097p2658765o8178486o3153708n7777308n2227783m6664033m1221827l6011906l1119561
81846A43676969k6605509k2507763j8844260j5615926j2809970j0403142q364824o659794n250599m099494l169944
81835I345744k427712j841574j383719j029894p59346n54632m01333k87707o59827%T034O8305L0264J21400R3551
79788C13520J29476J77534K41168L24554M32679N71398P47456R68470J242840J579604J988186K478048L058246
79775A4253179L736861M520332N412716O414873P523646Q731069J0023680J1381979J2780137J4185988J5561385
79764A14525845J6862960J8043282J9052445J9840006K0357234K0559534K0408946J9876538J8944560J7608165
79754C06079515J5876608J3773738J1337779Q620308N684518K602786n46286l681196o721059r589060j2215696
79743C31221955j4541549j6519502j8116234j9312957k0105396k0503023k0527683k0211689j9595580j8725664
79733A43062678j7651530j6423679j5091361j3700759j2293548j0905864r567704q302689p128180o055671n091374
79722B0850319m236966l490386k846664k298712j838039j455394j141280q86373o81833n19518l92107k93163k17135
79709E52749j59326j15822q3418j07291q6892%s2L11417K04004L01990L41331M69654O40215Q64581J156648J532832
79603E822672K012183K616365L369497M297765N428803O790771Q411138J0315117J2523811J5052066J7906128
79592I4546316K1081207K4559077K8305897L2270430L6382890M0554594M4678621M8631611N2276786N5468206
79582D78755635N8056167N9893564O0842939O0783863N9620186N7286740N3754959M9037013M3188063L6306375
79572A017525504K8531150K0038099J1032944J743147p591615j6729747k5438112l3501921m0733523m6979594
79562I07896332n2126367n6102626n8880441o0473666o0934474o0348222n8827111n6503081n3520429n0028596
79552C40151319m6175521m2101863l7936312l3792109k9764800k5931175k2349255j9059169j6084730j3435475
79542E3520910j1109015r093459p369813n914199m699831l698678k882817k225461j701683j288887r67047p18780
79530A851240n29268l86104k79057m39846o6207j50758%s1J48017K40121L22522K99917M14057N66332P67397J030127
79425C788490J369824J804371K354251L042450L894166M936274O196535P702494R480065J1551797J3934839J6638708
79413H6694264J9662876K2994388K6605594L0452235L4472054L8584134M2689190M6670908N0398502N3730484
79403D52954629N6519596N8618793N9887991O0201291N9454239N7570705N4508867N0265875M4880787L8435464
79393I93298237L1053246K2895376J4155278N050981m183914j3310193k2093329l0313499l7774710m4312540
79383I14464933m9800025n4151435n7323808n9316238o0167121n9949634n8765846n6739918n4010851n0725256
79373C53514801m7030545m3068883l8972142l4858036l0827458k6963015k3328671j9970305j6917052j4183173
79363E7395521j1770282r669744p865064o334154n051377l989316l120209k417089j854594j409535j061188p91442
79351B061527n84751m28022l10398l45221k23245j69890%s2R2450J13662Q7861J21690J66984K27007L05726M07887
79245A523267N39067P05703R15074J175228J494837J882972K348774K901025L547621M294926N147070O105163
79233C2580727P166505Q323820R564574J0870453J2217043J3573812J4904419J6167406J7317293J8306077J9085066
79222A80077195J9607036J9828559J9712406J9229876J8362891J7105709J5466107J3465933J1140938Q539869
79212C42536519N722835K759014k76153l304161o246815r029583j1584735j3854069j5791097j7362543j8549122
79201B55020090j9345566j9759964j9812460j9533464j8961507j8140886j7119261j5945345j4666817j3328525
79191G8406295j1971068j0629771r334074q107268o966593n923581m984628m151681l423024k794067k258117j807071
79179F055352j432047j123887q73573o72529n12841l87377k89857k14858j57780j14788q2739j06540q6536%Y9166
0@
##END=