##TITLE=Prediction 1
##JCAMP-DX=6.00
##DATA TYPE= NMR SPECTRUM
##DATA CLASS= XYDATA
##ORIGIN=
##OWNER=
##.SHIFT REFERENCE=INTERNAL, , 1, 12
##.OBSERVE FREQUENCY=400
##.OBSERVE NUCLEUS=1H
##.SOLVENT=
##$OFFSET=-1
##$SW=13
##$BF1=400
##XUNITS=HZ
##YUNITS=ARBITRARY UNITS
##XFACTOR=0.039673154244646035
##YFACTOR=0.04656612875245797
##DELTAX=0.03967315424466733
##FIRSTX=0
##FIRSTY=0
##LASTX=5200
##MAXY=100000000
##MINY=0
##NPOINTS=131072
##XYDATA=(X++(Y..Y))
131071@%T1426N589J3738J5304J7722K6107L8108N5119P8997J12179J57836K20030L03894M15833N63706P57026
109630B781188J007106J327173J732398K239824K868152L637356M568109N680959O995301Q528083J0292309J2295372
109618F3953330J4537270J7008814J9689944K2548276K5538048K8599603L1659558L4631776L7419227L9916745
109608C35502591M2014688M3603344M4577962M4844110M4323114M2957190M0713955L7589960L3612928K8842510
109598G38582352K3369359J7312545J0815347M039660k840702r647421j6205348k2349999k7934405l2834922
109588F82306466l6955699m0231561m2629213m4146784m4811828m4677990m3820657m2331895m0315048l7879334
109578B64506457l5134749l2187525k9136339k6069390k3062384k0177406j7462627j4952704j2669753j0624746
109568D3028834q819159p246764n895408m748720l787635k991720k340263j813116j391326j057537p96247n93885
109556A547054m38812l21210k32945j67372j19148q4039n8732m0671k7906j8975j6430p235r667l912%Y6J5462Q332
109464B3794L5560L0732M5459O6631R6772J39259J98562K80513L92633N44477P48037J018126J372772J833576
109450F826903K425963L179323M126952N305726O755470Q517921J0635259J3148152J6093325J9500648K3389845
109439A19905487K7766921L2620486L7918202M3603603M9593614N5777058O2014454O8139396P3961664P9272217
109429F50573102Q3850011Q7470491Q9915455R0983834R0502804Q8338582Q4406162P8677297P1186071O2031517
109419A477935326N1376951L9445846K6514339J2900730j047522j4968537k8501603m1302726n3059143o3501998
109409A405791663p2416427p9648559q5109121q8773604r0679172r0918692q9632441q6998177q3220239p8518448
109399E59876783p3117434o7236946o1083600n4844319m8681637m2730840l7098856l1864651k7080902k2776597
109389I3361001j8960288j5623686j2745323j0294104q232540o519590n113031l971329l055045k327806j756890
109378D761369j313499r72793p13728n18779l73580k66531j88403j31952r1567o2962m2897k8960l3397k2321%Y7M252
109286D252J0546J1867J3885K0582L0231M3999O3456R0676J28386J80107K50333L44720M70289O35617Q51031J128742
109270D278719J482946J929819K487398L175321M014357N025746O230291P647209R292736J1178536J3309940
109259G0053018J5684105J8288200K1097742K4075217K7169169L0313874L3429772L6424751L9196348M1634880
109249C57367076M3627463M5062747M5836220M5855752M5047116M3359068M0767691L7279615L2933835K7801945
109239G64938528K1986633J5618475Q851143J855264n188734j2098340j8696836k4820794l0326800l5096994
109229F87021545l9043131m2108993m4271051m5537483m5945630m5558230m4458665m2745631m0527565l7917176
109219B58907990l5026380l1961886k8821586k5691856k2645803j9742394j7026393j4528994j2268961j0254172
109209D0939565q483365o947979n633973m523511l596465k831697k208092j705346j304539r88489p41955n51686
109197A422468m06378k96559k14412j53586j09002p6651n3407l6871k5224j7098j4748j3192n340%S5801N1709K7502
93381G9211M1076O0789Q9142J29520J86464K65972L75883N26302P30078J003327J365966J842242K461197L257020
93367A2414189M269228N542576P126627R074878J1443363J4288667J7665276K1622296K6199519L1422988L7300182
93356A98369789M3815072N0923347N8548170O6576860P4858947Q3205962R1393365R9164835J06239065J12319033
93346I85414445J17103510J20300392J21641234J20896203J17888557J12507645J04719521R4574247Q2209216
93337A977254970O7848004N1794581L4423008J6163084k517292k1132047l9197949n6255456p1888137q5739515
93327A870753251r7526399j07047997j14190470j18926837j21312528j21477116j19612971j15961761j10799758
93318H43897414j04422911r7132560q9222548q0968278p2618091o4387153n6453813m8958287m2003366l5656772
93308A52073635k9954769k4906587k0499270j6702620j3473924j0762270q512311o667377n171947l973468l023602
93297H425490k278977j701510j258424r22003o69216m81219l42828k41977j69221j17252q0499n4760l6911k4653
93283D6040m6040%S3493K918J563N799N306P841J1481J6659K3949L4117M8152O7340R3302J28077J74179K34667
79774H55350L13200M14084N42289P03445R03775J150000J449154J808337K234385K733464L310573L968992M709687
79761B5096735N530682O426479P387507Q399725R444359J0497883J1532243J2515389J3412109J4185180J4796793
79750A39225084J5210204J5391548J5311708J4948116J4286404J3321729J2059725J0516945Q720749O708628M526948
79739B70227788K229195j26195k478314m766394o932413q923549j0694308j2208230j3439086j4371494j5000971
79728A83516029j5333427j5384177j5176568j4740317j4109682j3321603j2413906j1423661j0385790r331956
79718E1894942q289742p282180o327527n439336m626717l894770l245124k676537k185518j766918j414477j121315
79706C624781q80321o84486n27136m02103l03832k27418j68630j23873r0149o5000m6434l2866k3049j6017j1028p524
79690A4915n087n546j496k786%Y7J3791J0229J6096K0368K9920M3551O2814Q9768J27112J78334K47888L41383M65773
79596A647027O29565Q42991J118165J469161J912026K464652L146523L978256M980937O175231P580238R212117
79584D5156889J1082501J3196755J5552154J8136071K0924333K3879848K6951691L0074777L3170285L6146915
79574B74272219L8903066M1329936M3315485M4749149M5527071M5557622M4766857M3103581M0543662L7093233
79564F99161881L2790531K7706135K1941510J5625841Q911310J967018n028095j1892900j8451883k4542601l0022350
79553G18166397l4773695l8708513m1770413m3935440m5211104m5633910m5265625m4188596m2500471m0308669
79543B95869961l7724961l4860440l1821116k8704338k5596087k2569212j9682559j6980885j4495466j2245224
79533E1189673j0238241q473490o942662n631962m523785l598222k834320k211128j708475j307546r91243p44388
79521A984211n53773m08127k97991k15563j54495j09710p7192n3816l7176k5448j7261j6492r967m614k586%Y6J1778
79429A1778Q844J3850J7653K6013L7980N4948P8769J11883J57456K19550L03302M15116N62859P56057J006037
79414C782095J326055J731315K238909K867601L637446M569212N683571P000052Q535762J0303880J2311983J4560260
79402G8548141J7039707J9730434K2600199K5603333K8680214L1757418L4748676L7556716M0076023M2196486
79392C78537347M3807815M4804573M5091561M4589272M3239069M1007726L7890996L3915917K9141580K3658268
79382G65684124J7584886J1064781M260163k654601r500414j6101153k2291202k7922352l2869670l7036024m0355017
79371F09863521m2792255m4344928m5039846m4930140m4090906m2614152m0603382l8168165l5419004l2462770
79361A99397973k9398854k6316221k3291341k0387048j7652197j5122061j2819284j0755265q931810p342927n976613
79350B1404352m816566l843724l037612k377427j842907j414966j076111q10694o05014m47300l27621k37741j70924
79337C95745j21756q5933o0097m1643k8594j9454j3117j6946n202l003%Y6K813J506N576N108P549J1053J6038K3059
79243G2702L2848M6366O4842Q9845J23337J67740K26002L01648L98828N22334O77589Q70597J107835J396089J742204
79228G840806K152782K633770L189999L824646M538657N330144O193825P120497Q096638R104173J0120435J1118392
79216H1264764J2067150J2932763J3679338J4270399J4670499J4846949J4771629J4422726J3786325J2857692
79206B19570234J1642194J0155728Q424617O484958M381425K165568j06278k375368m583080o673425q595412
79195B40491161j0305101j1767266j2956532j3857993j4467247j4789928j4840750j4642181j4222844j3615761
79185A05025558j2856548j1981688j1026949j0026035r009510q004012p031789o110487n253210m468776l762133
79174A5494421l134874k585821k111621j707317j366880j083673q50840o61619n09568l88736k93756k19895j63065
79161D16756j19795q7190o2871m4917l1795k2300j5497j0672p281m924n363j450k701%Y9148
0@
##END=